%BLOCK LATTICE_CART
    5.46    0.00    0.00
    0.00    5.46    0.00
    0.00    0.00    5.46
%ENDBLOCK LATTICE_CART

%BLOCK POSITIONS_FRAC
    Si    0.00    0.00    0.00
    Si    0.00    0.50    0.50
    Si    0.50    0.00    0.50
    Si    0.50    0.50    0.00
    Si    0.75    0.25    0.75
    Si    0.25    0.25    0.25
    Si    0.25    0.75    0.75
    Si    0.75    0.75    0.25
%ENDBLOCK POSITIONS_FRAC

symmetry_generate
